o 1  1  2 -3     0
o 2 -1 -2  3     0
o 3     2  3 -4  0
o 4    -2 -3  4  0
o 5 -1    -3 -4  0
o 6  1     3  4  0
o 7 -1  2     4  0
o 8  1 -2    -4  0
a 9 1 2 0
d 1 1 2 -3 0
a 10 1 3 0   l 9 8 6 0
d 6 1 3 4 0
a 11 1 0     l 10 9 4 8 0
d 10 1 3 0
d 9 1 2 0
d 8 1 -2 -4 0
a 12 2 0
d 7 -1 2 4 0
d 3 2 3 -4 0
a 13 0       l 11 12 2 4 5 0
f 13 0
f 2 -1 -2 3 0
f 4 -2 -3 4 0
f 5 -1 -3 -4 0
f 11 1 0
f 12 2 0
